c K to QBF translator. (C)Rice University.
c From input file 1-2.lwb
p cnf 294 793
e 294 1 293 0
r 0.909 82 0
e 92 292 24 23 22 21 20 19 18 17 16 15 14 13 12 11 10 9 8 7 6 5 4 3 2 112 285 286 287 288 289 290 291 0
r 0.257 83 84 85 0
e 117 284 47 46 45 44 43 42 41 40 39 38 37 36 35 34 33 32 31 30 29 28 27 26 25 139 142 145 148 151 154 157 160 163 166 169 277 278 279 280 281 282 283 0
r 0.656 86 87 88 0
e 174 276 69 68 67 66 65 64 63 62 61 60 59 58 57 56 55 54 53 52 51 50 49 48 196 199 202 205 208 211 214 217 220 223 226 269 270 271 272 273 274 275 0
r 0.884 89 90 91 0
e 231 268 81 80 79 78 77 76 75 74 73 72 71 70 234 237 240 243 246 249 252 255 258 261 262 263 264 265 266 267 259 260 256 257 253 254 250 251 248 247 245 244 242 241 239 238 236 235 233 232 227 228 229 230 224 225 221 222 218 219 215 216 213 212 210 209 207 206 204 203 201 200 198 197 176 195 177 178 182 186 190 192 194 193 191 189 187 188 185 183 184 181 179 180 175 170 171 172 173 167 168 164 165 161 162 158 159 156 155 153 152 150 149 147 146 144 143 141 140 119 138 120 121 125 129 133 135 137 136 134 132 130 131 128 126 127 124 122 123 118 113 114 115 116 111 93 94 98 102 106 108 110 109 107 105 103 104 101 99 100 97 95 96 0
294  0 
294 -293 -1  0 
293 -294  0 
1 -294  0 
-293 92 292  0 
-92 293  0 
-292 293  0 
-92 -82 -1  0 
82 92  0 
1 92  0 
292 -112 -285 -286 -287 -288 -289 -290 -291  0 
112 -292  0 
285 -292  0 
286 -292  0 
287 -292  0 
288 -292  0 
289 -292  0 
290 -292  0 
291 -292  0 
-112 -82 111  0 
82 112  0 
-111 112  0 
111 -12 -21 -14 -93 -94 -98 -102 -106 -108 -110  0 
12 -111  0 
21 -111  0 
14 -111  0 
93 -111  0 
94 -111  0 
98 -111  0 
102 -111  0 
106 -111  0 
108 -111  0 
110 -111  0 
-93 14 21  0 
-14 93  0 
-21 93  0 
-94 13 20  0 
-13 94  0 
-20 94  0 
-98 13 97  0 
-13 98  0 
-97 98  0 
97 -95 -96  0 
95 -97  0 
96 -97  0 
-95 16 7  0 
-16 95  0 
-7 95  0 
-96 22 6  0 
-22 96  0 
-6 96  0 
-102 15 101  0 
-15 102  0 
-101 102  0 
101 -99 -100  0 
99 -101  0 
100 -101  0 
-99 18 11  0 
-18 99  0 
-11 99  0 
-100 24 10  0 
-24 100  0 
-10 100  0 
-106 14 105  0 
-14 106  0 
-105 106  0 
105 -103 -104  0 
103 -105  0 
104 -105  0 
-103 17 9  0 
-17 103  0 
-9 103  0 
-104 23 8  0 
-23 104  0 
-8 104  0 
-108 107 15 20  0 
-107 108  0 
-15 108  0 
-20 108  0 
107 -5 -3  0 
5 -107  0 
3 -107  0 
-110 109 14 19  0 
-109 110  0 
-14 110  0 
-19 110  0 
109 -4 -2  0 
4 -109  0 
2 -109  0 
-285 117 284  0 
-117 285  0 
-284 285  0 
117 -113 -114 -115 -116  0 
113 -117  0 
114 -117  0 
115 -117  0 
116 -117  0 
-113 -5 83 84 -85  0 
5 113  0 
-83 113  0 
-84 113  0 
85 113  0 
-114 -4 -83 84 -85  0 
4 114  0 
83 114  0 
-84 114  0 
85 114  0 
-115 -3 83 -84 -85  0 
3 115  0 
-83 115  0 
84 115  0 
85 115  0 
-116 -2 -83 -84 -85  0 
2 116  0 
83 116  0 
84 116  0 
85 116  0 
284 -139 -142 -145 -148 -151 -154 -157 -160 -163 -166 -169 -277 -278 -279 -280 -281 -282 -283  0 
139 -284  0 
142 -284  0 
145 -284  0 
148 -284  0 
151 -284  0 
154 -284  0 
157 -284  0 
160 -284  0 
163 -284  0 
166 -284  0 
169 -284  0 
277 -284  0 
278 -284  0 
279 -284  0 
280 -284  0 
281 -284  0 
282 -284  0 
283 -284  0 
-139 119 138  0 
-119 139  0 
-138 139  0 
-119 -12 118  0 
12 119  0 
-118 119  0 
118 5 4 3 2  0 
-5 -118  0 
-4 -118  0 
-3 -118  0 
-2 -118  0 
138 -35 -120 -121 -125 -129 -133 -135 -137  0 
35 -138  0 
120 -138  0 
121 -138  0 
125 -138  0 
129 -138  0 
133 -138  0 
135 -138  0 
137 -138  0 
-120 37 44  0 
-37 120  0 
-44 120  0 
-121 36 43  0 
-36 121  0 
-43 121  0 
-125 36 124  0 
-36 125  0 
-124 125  0 
124 -122 -123  0 
122 -124  0 
123 -124  0 
-122 39 30  0 
-39 122  0 
-30 122  0 
-123 45 29  0 
-45 123  0 
-29 123  0 
-129 38 128  0 
-38 129  0 
-128 129  0 
128 -126 -127  0 
126 -128  0 
127 -128  0 
-126 41 34  0 
-41 126  0 
-34 126  0 
-127 47 33  0 
-47 127  0 
-33 127  0 
-133 37 132  0 
-37 133  0 
-132 133  0 
132 -130 -131  0 
130 -132  0 
131 -132  0 
-130 40 32  0 
-40 130  0 
-32 130  0 
-131 46 31  0 
-46 131  0 
-31 131  0 
-135 134 38 43  0 
-134 135  0 
-38 135  0 
-43 135  0 
134 -28 -26  0 
28 -134  0 
26 -134  0 
-137 136 37 42  0 
-136 137  0 
-37 137  0 
-42 137  0 
136 -27 -25  0 
27 -136  0 
25 -136  0 
-142 141 38 47  0 
-141 142  0 
-38 142  0 
-47 142  0 
-141 -11 140  0 
11 141  0 
-140 141  0 
140 5 4 3 2  0 
-5 -140  0 
-4 -140  0 
-3 -140  0 
-2 -140  0 
-145 144 38 41  0 
-144 145  0 
-38 145  0 
-41 145  0 
-144 -10 143  0 
10 144  0 
-143 144  0 
143 5 4 3 2  0 
-5 -143  0 
-4 -143  0 
-3 -143  0 
-2 -143  0 
-148 147 37 46  0 
-147 148  0 
-37 148  0 
-46 148  0 
-147 -9 146  0 
9 147  0 
-146 147  0 
146 5 4 3 2  0 
-5 -146  0 
-4 -146  0 
-3 -146  0 
-2 -146  0 
-151 150 37 40  0 
-150 151  0 
-37 151  0 
-40 151  0 
-150 -8 149  0 
8 150  0 
-149 150  0 
149 5 4 3 2  0 
-5 -149  0 
-4 -149  0 
-3 -149  0 
-2 -149  0 
-154 153 36 45  0 
-153 154  0 
-36 154  0 
-45 154  0 
-153 -7 152  0 
7 153  0 
-152 153  0 
152 5 4 3 2  0 
-5 -152  0 
-4 -152  0 
-3 -152  0 
-2 -152  0 
-157 156 36 39  0 
-156 157  0 
-36 157  0 
-39 157  0 
-156 -6 155  0 
6 156  0 
-155 156  0 
155 5 4 3 2  0 
-5 -155  0 
-4 -155  0 
-3 -155  0 
-2 -155  0 
-160 158 159  0 
-158 160  0 
-159 160  0 
-158 83 84 -85  0 
-83 158  0 
-84 158  0 
85 158  0 
159 -46 -43 -36  0 
46 -159  0 
43 -159  0 
36 -159  0 
-163 161 162  0 
-161 163  0 
-162 163  0 
-161 -83 84 -85  0 
83 161  0 
-84 161  0 
85 161  0 
162 -45 -42  0 
45 -162  0 
42 -162  0 
-166 164 165  0 
-164 166  0 
-165 166  0 
-164 83 -84 -85  0 
-83 164  0 
84 164  0 
85 164  0 
165 -40 -43 -36  0 
40 -165  0 
43 -165  0 
36 -165  0 
-169 167 168  0 
-167 169  0 
-168 169  0 
-167 -83 -84 -85  0 
83 167  0 
84 167  0 
85 167  0 
168 -39 -42  0 
39 -168  0 
42 -168  0 
-277 174 276  0 
-174 277  0 
-276 277  0 
174 -170 -171 -172 -173  0 
170 -174  0 
171 -174  0 
172 -174  0 
173 -174  0 
-170 -28 86 87 -88  0 
28 170  0 
-86 170  0 
-87 170  0 
88 170  0 
-171 -27 -86 87 -88  0 
27 171  0 
86 171  0 
-87 171  0 
88 171  0 
-172 -26 86 -87 -88  0 
26 172  0 
-86 172  0 
87 172  0 
88 172  0 
-173 -25 -86 -87 -88  0 
25 173  0 
86 173  0 
87 173  0 
88 173  0 
276 -196 -199 -202 -205 -208 -211 -214 -217 -220 -223 -226 -269 -270 -271 -272 -273 -274 -275  0 
196 -276  0 
199 -276  0 
202 -276  0 
205 -276  0 
208 -276  0 
211 -276  0 
214 -276  0 
217 -276  0 
220 -276  0 
223 -276  0 
226 -276  0 
269 -276  0 
270 -276  0 
271 -276  0 
272 -276  0 
273 -276  0 
274 -276  0 
275 -276  0 
-196 176 195  0 
-176 196  0 
-195 196  0 
-176 -35 175  0 
35 176  0 
-175 176  0 
175 28 27 26 25  0 
-28 -175  0 
-27 -175  0 
-26 -175  0 
-25 -175  0 
195 -177 -178 -182 -186 -190 -192 -194  0 
177 -195  0 
178 -195  0 
182 -195  0 
186 -195  0 
190 -195  0 
192 -195  0 
194 -195  0 
-177 59 66  0 
-59 177  0 
-66 177  0 
-178 58 65  0 
-58 178  0 
-65 178  0 
-182 58 181  0 
-58 182  0 
-181 182  0 
181 -179 -180  0 
179 -181  0 
180 -181  0 
-179 61 53  0 
-61 179  0 
-53 179  0 
-180 67 52  0 
-67 180  0 
-52 180  0 
-186 60 185  0 
-60 186  0 
-185 186  0 
185 -183 -184  0 
183 -185  0 
184 -185  0 
-183 63 57  0 
-63 183  0 
-57 183  0 
-184 69 56  0 
-69 184  0 
-56 184  0 
-190 59 189  0 
-59 190  0 
-189 190  0 
189 -187 -188  0 
187 -189  0 
188 -189  0 
-187 62 55  0 
-62 187  0 
-55 187  0 
-188 68 54  0 
-68 188  0 
-54 188  0 
-192 191 60 65  0 
-191 192  0 
-60 192  0 
-65 192  0 
191 -51 -49  0 
51 -191  0 
49 -191  0 
-194 193 59 64  0 
-193 194  0 
-59 194  0 
-64 194  0 
193 -50 -48  0 
50 -193  0 
48 -193  0 
-199 198 60 69  0 
-198 199  0 
-60 199  0 
-69 199  0 
-198 -34 197  0 
34 198  0 
-197 198  0 
197 28 27 26 25  0 
-28 -197  0 
-27 -197  0 
-26 -197  0 
-25 -197  0 
-202 201 60 63  0 
-201 202  0 
-60 202  0 
-63 202  0 
-201 -33 200  0 
33 201  0 
-200 201  0 
200 28 27 26 25  0 
-28 -200  0 
-27 -200  0 
-26 -200  0 
-25 -200  0 
-205 204 59 68  0 
-204 205  0 
-59 205  0 
-68 205  0 
-204 -32 203  0 
32 204  0 
-203 204  0 
203 28 27 26 25  0 
-28 -203  0 
-27 -203  0 
-26 -203  0 
-25 -203  0 
-208 207 59 62  0 
-207 208  0 
-59 208  0 
-62 208  0 
-207 -31 206  0 
31 207  0 
-206 207  0 
206 28 27 26 25  0 
-28 -206  0 
-27 -206  0 
-26 -206  0 
-25 -206  0 
-211 210 58 67  0 
-210 211  0 
-58 211  0 
-67 211  0 
-210 -30 209  0 
30 210  0 
-209 210  0 
209 28 27 26 25  0 
-28 -209  0 
-27 -209  0 
-26 -209  0 
-25 -209  0 
-214 213 58 61  0 
-213 214  0 
-58 214  0 
-61 214  0 
-213 -29 212  0 
29 213  0 
-212 213  0 
212 28 27 26 25  0 
-28 -212  0 
-27 -212  0 
-26 -212  0 
-25 -212  0 
-217 215 216  0 
-215 217  0 
-216 217  0 
-215 86 87 -88  0 
-86 215  0 
-87 215  0 
88 215  0 
216 -68 -65 -58  0 
68 -216  0 
65 -216  0 
58 -216  0 
-220 218 219  0 
-218 220  0 
-219 220  0 
-218 -86 87 -88  0 
86 218  0 
-87 218  0 
88 218  0 
219 -67 -64  0 
67 -219  0 
64 -219  0 
-223 221 222  0 
-221 223  0 
-222 223  0 
-221 86 -87 -88  0 
-86 221  0 
87 221  0 
88 221  0 
222 -62 -65 -58  0 
62 -222  0 
65 -222  0 
58 -222  0 
-226 224 225  0 
-224 226  0 
-225 226  0 
-224 -86 -87 -88  0 
86 224  0 
87 224  0 
88 224  0 
225 -61 -64  0 
61 -225  0 
64 -225  0 
-269 231 268  0 
-231 269  0 
-268 269  0 
231 -227 -228 -229 -230  0 
227 -231  0 
228 -231  0 
229 -231  0 
230 -231  0 
-227 -51 89 90 -91  0 
51 227  0 
-89 227  0 
-90 227  0 
91 227  0 
-228 -50 -89 90 -91  0 
50 228  0 
89 228  0 
-90 228  0 
91 228  0 
-229 -49 89 -90 -91  0 
49 229  0 
-89 229  0 
90 229  0 
91 229  0 
-230 -48 -89 -90 -91  0 
48 230  0 
89 230  0 
90 230  0 
91 230  0 
268 -234 -237 -240 -243 -246 -249 -252 -255 -258 -261 -262 -263 -264 -265 -266 -267  0 
234 -268  0 
237 -268  0 
240 -268  0 
243 -268  0 
246 -268  0 
249 -268  0 
252 -268  0 
255 -268  0 
258 -268  0 
261 -268  0 
262 -268  0 
263 -268  0 
264 -268  0 
265 -268  0 
266 -268  0 
267 -268  0 
-234 233 72 81  0 
-233 234  0 
-72 234  0 
-81 234  0 
-233 -57 232  0 
57 233  0 
-232 233  0 
232 51 50 49 48  0 
-51 -232  0 
-50 -232  0 
-49 -232  0 
-48 -232  0 
-237 236 72 75  0 
-236 237  0 
-72 237  0 
-75 237  0 
-236 -56 235  0 
56 236  0 
-235 236  0 
235 51 50 49 48  0 
-51 -235  0 
-50 -235  0 
-49 -235  0 
-48 -235  0 
-240 239 71 80  0 
-239 240  0 
-71 240  0 
-80 240  0 
-239 -55 238  0 
55 239  0 
-238 239  0 
238 51 50 49 48  0 
-51 -238  0 
-50 -238  0 
-49 -238  0 
-48 -238  0 
-243 242 71 74  0 
-242 243  0 
-71 243  0 
-74 243  0 
-242 -54 241  0 
54 242  0 
-241 242  0 
241 51 50 49 48  0 
-51 -241  0 
-50 -241  0 
-49 -241  0 
-48 -241  0 
-246 245 70 79  0 
-245 246  0 
-70 246  0 
-79 246  0 
-245 -53 244  0 
53 245  0 
-244 245  0 
244 51 50 49 48  0 
-51 -244  0 
-50 -244  0 
-49 -244  0 
-48 -244  0 
-249 248 70 73  0 
-248 249  0 
-70 249  0 
-73 249  0 
-248 -52 247  0 
52 248  0 
-247 248  0 
247 51 50 49 48  0 
-51 -247  0 
-50 -247  0 
-49 -247  0 
-48 -247  0 
-252 250 251  0 
-250 252  0 
-251 252  0 
-250 89 90 -91  0 
-89 250  0 
-90 250  0 
91 250  0 
251 -80 -77 -70  0 
80 -251  0 
77 -251  0 
70 -251  0 
-255 253 254  0 
-253 255  0 
-254 255  0 
-253 -89 90 -91  0 
89 253  0 
-90 253  0 
91 253  0 
254 -79 -76  0 
79 -254  0 
76 -254  0 
-258 256 257  0 
-256 258  0 
-257 258  0 
-256 89 -90 -91  0 
-89 256  0 
90 256  0 
91 256  0 
257 -74 -77 -70  0 
74 -257  0 
77 -257  0 
70 -257  0 
-261 259 260  0 
-259 261  0 
-260 261  0 
-259 -89 -90 -91  0 
89 259  0 
90 259  0 
91 259  0 
260 -73 -76  0 
73 -260  0 
76 -260  0 
-262 -75 -81  0 
75 262  0 
81 262  0 
-263 -74 -80  0 
74 263  0 
80 263  0 
-264 -73 -79  0 
73 264  0 
79 264  0 
-265 -72 -78  0 
72 265  0 
78 265  0 
-266 -71 -77  0 
71 266  0 
77 266  0 
-267 -70 -76  0 
70 267  0 
76 267  0 
-270 -63 -69  0 
63 270  0 
69 270  0 
-271 -62 -68  0 
62 271  0 
68 271  0 
-272 -61 -67  0 
61 272  0 
67 272  0 
-273 -60 -66  0 
60 273  0 
66 273  0 
-274 -59 -65  0 
59 274  0 
65 274  0 
-275 -58 -64  0 
58 275  0 
64 275  0 
-278 -41 -47  0 
41 278  0 
47 278  0 
-279 -40 -46  0 
40 279  0 
46 279  0 
-280 -39 -45  0 
39 280  0 
45 280  0 
-281 -38 -44  0 
38 281  0 
44 281  0 
-282 -37 -43  0 
37 282  0 
43 282  0 
-283 -36 -42  0 
36 283  0 
42 283  0 
-286 -18 -24  0 
18 286  0 
24 286  0 
-287 -17 -23  0 
17 287  0 
23 287  0 
-288 -16 -22  0 
16 288  0 
22 288  0 
-289 -15 -21  0 
15 289  0 
21 289  0 
-290 -14 -20  0 
14 290  0 
20 290  0 
-291 -13 -19  0 
13 291  0 
19 291  0 
